unsat
(define-fun inv ((s (_ BitVec 4)) (t (_ BitVec 4))) (_ BitVec 4) (bvashr t s))
0.48user 0.01system 0:00.49elapsed 99%CPU (0avgtext+0avgdata 29980maxresident)k
0inputs+8outputs (0major+2108minor)pagefaults 0swaps
